decision_x1=[0,4];
decision_x2=[0,4];
decision_x3=[0,4];
decision_x4=[0,4];
decision_x5=[0,4];
decision_x6=[0,4];
decision_x7=[0,4];
decision_x8=[0,4];
decision_x9=[0,4];
decision_x10=[0,4];
random_y1=[0,4];
random_y2=[0,4];
random_y3=[0,4];
random_y4=[0,4];
random_y5=[0,4];
random_y6=[0,4];
random_y7=[0,4];
random_y8=[0,4];
random_y9=[0,4];
random_y10=[0,4];
constraint_x2_x1=[
0,0,93|
0,1,45|
0,2,96|
0,3,49|
0,4,48|
1,0,45|
1,1,76|
1,2,83|
1,3,89|
1,4,3.2|
2,0,80|
2,1,94|
2,2,22|
2,3,17|
2,4,5.5|
3,0,90|
3,1,74|
3,2,43|
3,3,0.52|
3,4,92|
4,0,69|
4,1,37|
4,2,78|
4,3,62|
4,4,28|
];
constraint_x3_x2=[
0,0,98|
0,1,21|
0,2,96|
0,3,46|
0,4,92|
1,0,49|
1,1,69|
1,2,39|
1,3,85|
1,4,55|
2,0,60|
2,1,5.2|
2,2,90|
2,3,59|
2,4,5.4|
3,0,37|
3,1,31|
3,2,15|
3,3,68|
3,4,74|
4,0,98|
4,1,77|
4,2,75|
4,3,19|
4,4,16|
];
constraint_x4_x2=[
0,0,62|
0,1,41|
0,2,45|
0,3,38|
0,4,42|
1,0,21|
1,1,27|
1,2,0.045|
1,3,29|
1,4,29|
2,0,78|
2,1,42|
2,2,37|
2,3,29|
2,4,49|
3,0,60|
3,1,27|
3,2,3.7|
3,3,39|
3,4,14|
4,0,29|
4,1,98|
4,2,54|
4,3,69|
4,4,40|
];
constraint_x5_x1=[
0,0,3.1|
0,1,37|
0,2,70|
0,3,46|
0,4,82|
1,0,88|
1,1,23|
1,2,11|
1,3,9.1|
1,4,32|
2,0,99|
2,1,28|
2,2,94|
2,3,84|
2,4,65|
3,0,75|
3,1,81|
3,2,98|
3,3,87|
3,4,39|
4,0,38|
4,1,7.2|
4,2,92|
4,3,8.9|
4,4,35|
];
constraint_x5_x3=[
0,0,14|
0,1,66|
0,2,95|
0,3,88|
0,4,39|
1,0,40|
1,1,50|
1,2,51|
1,3,7.8|
1,4,4.1|
2,0,71|
2,1,33|
2,2,0.91|
2,3,80|
2,4,30|
3,0,23|
3,1,3.1|
3,2,85|
3,3,10|
3,4,87|
4,0,83|
4,1,71|
4,2,18|
4,3,73|
4,4,59|
];
constraint_x5_x4=[
0,0,50|
0,1,95|
0,2,20|
0,3,97|
0,4,53|
1,0,25|
1,1,33|
1,2,65|
1,3,56|
1,4,26|
2,0,73|
2,1,87|
2,2,60|
2,3,38|
2,4,16|
3,0,49|
3,1,75|
3,2,3.7|
3,3,60|
3,4,12|
4,0,77|
4,1,39|
4,2,92|
4,3,56|
4,4,92|
];
constraint_x7_x2=[
0,0,71|
0,1,40|
0,2,87|
0,3,87|
0,4,79|
1,0,27|
1,1,36|
1,2,45|
1,3,32|
1,4,83|
2,0,21|
2,1,96|
2,2,24|
2,3,47|
2,4,79|
3,0,73|
3,1,41|
3,2,62|
3,3,63|
3,4,52|
4,0,20|
4,1,97|
4,2,69|
4,3,27|
4,4,15|
];
constraint_x7_x4=[
0,0,18|
0,1,34|
0,2,34|
0,3,29|
0,4,89|
1,0,1.5|
1,1,82|
1,2,8.4|
1,3,84|
1,4,46|
2,0,7.7|
2,1,36|
2,2,86|
2,3,95|
2,4,35|
3,0,11|
3,1,57|
3,2,75|
3,3,57|
3,4,3.8|
4,0,44|
4,1,69|
4,2,17|
4,3,43|
4,4,26|
];
constraint_x7_x6=[
0,0,81|
0,1,14|
0,2,95|
0,3,87|
0,4,1.1|
1,0,8.4|
1,1,19|
1,2,30|
1,3,32|
1,4,14|
2,0,95|
2,1,40|
2,2,16|
2,3,83|
2,4,22|
3,0,7.5|
3,1,49|
3,2,26|
3,3,60|
3,4,31|
4,0,6.3|
4,1,13|
4,2,83|
4,3,86|
4,4,77|
];
constraint_x8_x1=[
0,0,64|
0,1,33|
0,2,58|
0,3,43|
0,4,25|
1,0,57|
1,1,81|
1,2,73|
1,3,5.3|
1,4,70|
2,0,90|
2,1,81|
2,2,95|
2,3,10|
2,4,77|
3,0,70|
3,1,30|
3,2,36|
3,3,64|
3,4,61|
4,0,95|
4,1,42|
4,2,2.4|
4,3,82|
4,4,20|
];
constraint_x8_x2=[
0,0,73|
0,1,92|
0,2,54|
0,3,9.8|
0,4,23|
1,0,67|
1,1,38|
1,2,54|
1,3,4.1|
1,4,82|
2,0,70|
2,1,42|
2,2,99|
2,3,76|
2,4,80|
3,0,18|
3,1,5.1|
3,2,23|
3,3,15|
3,4,29|
4,0,89|
4,1,33|
4,2,33|
4,3,73|
4,4,8.4|
];
constraint_x8_x3=[
0,0,53|
0,1,74|
0,2,49|
0,3,80|
0,4,98|
1,0,98|
1,1,4.7|
1,2,76|
1,3,5.8|
1,4,41|
2,0,77|
2,1,81|
2,2,66|
2,3,59|
2,4,58|
3,0,32|
3,1,86|
3,2,17|
3,3,98|
3,4,30|
4,0,22|
4,1,71|
4,2,56|
4,3,19|
4,4,94|
];
constraint_x8_x5=[
0,0,35|
0,1,36|
0,2,43|
0,3,76|
0,4,55|
1,0,94|
1,1,48|
1,2,15|
1,3,89|
1,4,7.6|
2,0,67|
2,1,5.4|
2,2,76|
2,3,3.6|
2,4,32|
3,0,17|
3,1,20|
3,2,50|
3,3,48|
3,4,28|
4,0,25|
4,1,31|
4,2,15|
4,3,82|
4,4,77|
];
constraint_x8_x6=[
0,0,79|
0,1,7.3|
0,2,1e+02|
0,3,32|
0,4,17|
1,0,91|
1,1,79|
1,2,73|
1,3,48|
1,4,48|
2,0,95|
2,1,54|
2,2,32|
2,3,92|
2,4,81|
3,0,69|
3,1,24|
3,2,86|
3,3,5.2|
3,4,71|
4,0,38|
4,1,80|
4,2,28|
4,3,79|
4,4,17|
];
constraint_x8_x7=[
0,0,22|
0,1,14|
0,2,35|
0,3,42|
0,4,73|
1,0,56|
1,1,20|
1,2,93|
1,3,60|
1,4,25|
2,0,37|
2,1,54|
2,2,89|
2,3,21|
2,4,44|
3,0,79|
3,1,39|
3,2,71|
3,3,48|
3,4,86|
4,0,77|
4,1,83|
4,2,16|
4,3,19|
4,4,89|
];
constraint_x9_x1=[
0,0,54|
0,1,52|
0,2,13|
0,3,48|
0,4,7|
1,0,33|
1,1,2|
1,2,82|
1,3,25|
1,4,23|
2,0,72|
2,1,6|
2,2,90|
2,3,9.2|
2,4,64|
3,0,96|
3,1,95|
3,2,67|
3,3,21|
3,4,25|
4,0,15|
4,1,94|
4,2,70|
4,3,5.9|
4,4,86|
];
constraint_x9_x6=[
0,0,3.4|
0,1,83|
0,2,31|
0,3,85|
0,4,98|
1,0,19|
1,1,36|
1,2,55|
1,3,28|
1,4,56|
2,0,88|
2,1,99|
2,2,88|
2,3,16|
2,4,77|
3,0,73|
3,1,57|
3,2,74|
3,3,60|
3,4,41|
4,0,27|
4,1,34|
4,2,32|
4,3,73|
4,4,50|
];
constraint_x9_x8=[
0,0,64|
0,1,43|
0,2,60|
0,3,38|
0,4,69|
1,0,27|
1,1,95|
1,2,14|
1,3,14|
1,4,25|
2,0,63|
2,1,7.6|
2,2,94|
2,3,28|
2,4,3.6|
3,0,33|
3,1,35|
3,2,96|
3,3,86|
3,4,87|
4,0,46|
4,1,84|
4,2,29|
4,3,25|
4,4,13|
];
constraint_x10_x3=[
0,0,67|
0,1,43|
0,2,92|
0,3,95|
0,4,55|
1,0,3.8|
1,1,29|
1,2,7.4|
1,3,70|
1,4,39|
2,0,27|
2,1,50|
2,2,27|
2,3,92|
2,4,12|
3,0,69|
3,1,23|
3,2,8.6|
3,3,70|
3,4,60|
4,0,35|
4,1,1.4|
4,2,23|
4,3,48|
4,4,46|
];
constraint_x10_x4=[
0,0,69|
0,1,89|
0,2,82|
0,3,63|
0,4,18|
1,0,22|
1,1,85|
1,2,77|
1,3,41|
1,4,94|
2,0,49|
2,1,45|
2,2,70|
2,3,79|
2,4,12|
3,0,21|
3,1,48|
3,2,5.4|
3,3,41|
3,4,6.8|
4,0,6.7|
4,1,27|
4,2,12|
4,3,34|
4,4,80|
];
constraint_x10_x6=[
0,0,1e+02|
0,1,2.9|
0,2,61|
0,3,63|
0,4,57|
1,0,4.3|
1,1,9.4|
1,2,62|
1,3,66|
1,4,79|
2,0,23|
2,1,13|
2,2,69|
2,3,76|
2,4,40|
3,0,63|
3,1,56|
3,2,42|
3,3,56|
3,4,12|
4,0,99|
4,1,70|
4,2,50|
4,3,13|
4,4,78|
];
constraint_x10_x7=[
0,0,25|
0,1,79|
0,2,65|
0,3,55|
0,4,3.3|
1,0,52|
1,1,63|
1,2,20|
1,3,0.42|
1,4,8.7|
2,0,16|
2,1,3.7|
2,2,97|
2,3,24|
2,4,90|
3,0,18|
3,1,96|
3,2,91|
3,3,68|
3,4,43|
4,0,30|
4,1,37|
4,2,98|
4,3,83|
4,4,73|
];
constraint_x10_x9=[
0,0,1e+02|
0,1,75|
0,2,97|
0,3,62|
0,4,21|
1,0,7.6|
1,1,91|
1,2,31|
1,3,86|
1,4,97|
2,0,98|
2,1,75|
2,2,41|
2,3,51|
2,4,62|
3,0,78|
3,1,75|
3,2,84|
3,3,42|
3,4,93|
4,0,95|
4,1,29|
4,2,2.4|
4,3,40|
4,4,53|
];
constraint_x1_y1=[
0,0,73|
0,1,76|
0,2,47|
0,3,71|
0,4,72|
1,0,55|
1,1,53|
1,2,66|
1,3,22|
1,4,93|
2,0,78|
2,1,1.3|
2,2,96|
2,3,27|
2,4,12|
3,0,32|
3,1,95|
3,2,16|
3,3,14|
3,4,55|
4,0,66|
4,1,64|
4,2,78|
4,3,68|
4,4,51|
];
constraint_x2_y2=[
0,0,97|
0,1,63|
0,2,68|
0,3,47|
0,4,63|
1,0,82|
1,1,23|
1,2,3.2|
1,3,80|
1,4,22|
2,0,38|
2,1,81|
2,2,17|
2,3,19|
2,4,5.9|
3,0,20|
3,1,29|
3,2,64|
3,3,85|
3,4,12|
4,0,85|
4,1,69|
4,2,22|
4,3,85|
4,4,92|
];
constraint_x3_y3=[
0,0,22|
0,1,4.6|
0,2,65|
0,3,35|
0,4,8.9|
1,0,4.2|
1,1,29|
1,2,55|
1,3,29|
1,4,80|
2,0,83|
2,1,69|
2,2,97|
2,3,66|
2,4,54|
3,0,19|
3,1,1.1|
3,2,6.8|
3,3,22|
3,4,76|
4,0,94|
4,1,30|
4,2,76|
4,3,70|
4,4,82|
];
constraint_x4_y4=[
0,0,83|
0,1,88|
0,2,2.3|
0,3,99|
0,4,69|
1,0,86|
1,1,1e+02|
1,2,32|
1,3,79|
1,4,61|
2,0,36|
2,1,35|
2,2,74|
2,3,79|
2,4,14|
3,0,40|
3,1,69|
3,2,65|
3,3,15|
3,4,84|
4,0,82|
4,1,95|
4,2,52|
4,3,24|
4,4,19|
];
constraint_x5_y5=[
0,0,43|
0,1,62|
0,2,72|
0,3,15|
0,4,39|
1,0,76|
1,1,25|
1,2,52|
1,3,35|
1,4,86|
2,0,10|
2,1,20|
2,2,26|
2,3,80|
2,4,57|
3,0,66|
3,1,39|
3,2,34|
3,3,75|
3,4,68|
4,0,64|
4,1,94|
4,2,87|
4,3,31|
4,4,53|
];
constraint_x6_y6=[
0,0,63|
0,1,81|
0,2,36|
0,3,13|
0,4,51|
1,0,11|
1,1,87|
1,2,58|
1,3,52|
1,4,28|
2,0,26|
2,1,28|
2,2,30|
2,3,36|
2,4,94|
3,0,88|
3,1,23|
3,2,42|
3,3,81|
3,4,75|
4,0,81|
4,1,83|
4,2,41|
4,3,23|
4,4,33|
];
constraint_x7_y7=[
0,0,99|
0,1,67|
0,2,83|
0,3,57|
0,4,28|
1,0,9.4|
1,1,22|
1,2,33|
1,3,14|
1,4,71|
2,0,56|
2,1,99|
2,2,86|
2,3,49|
2,4,72|
3,0,84|
3,1,20|
3,2,3|
3,3,29|
3,4,56|
4,0,68|
4,1,19|
4,2,49|
4,3,11|
4,4,29|
];
constraint_x8_y8=[
0,0,25|
0,1,97|
0,2,64|
0,3,9|
0,4,38|
1,0,79|
1,1,36|
1,2,90|
1,3,61|
1,4,45|
2,0,24|
2,1,61|
2,2,23|
2,3,56|
2,4,34|
3,0,5.1|
3,1,93|
3,2,32|
3,3,66|
3,4,76|
4,0,96|
4,1,7.1|
4,2,55|
4,3,40|
4,4,19|
];
constraint_x9_y9=[
0,0,93|
0,1,24|
0,2,40|
0,3,26|
0,4,26|
1,0,4.7|
1,1,35|
1,2,70|
1,3,47|
1,4,50|
2,0,85|
2,1,67|
2,2,29|
2,3,69|
2,4,88|
3,0,20|
3,1,16|
3,2,2.1|
3,3,64|
3,4,25|
4,0,72|
4,1,94|
4,2,5.1|
4,3,34|
4,4,2.2|
];
constraint_x10_y10=[
0,0,34|
0,1,73|
0,2,23|
0,3,39|
0,4,42|
1,0,67|
1,1,45|
1,2,15|
1,3,29|
1,4,39|
2,0,25|
2,1,24|
2,2,12|
2,3,27|
2,4,35|
3,0,36|
3,1,89|
3,2,68|
3,3,74|
3,4,4|
4,0,42|
4,1,13|
4,2,90|
4,3,82|
4,4,56|
];
initial_distribution_y1=[0.34,0.22,0.011,0.25,0.18];
initial_distribution_y2=[0.13,0.25,0.22,0.2,0.19];
initial_distribution_y3=[0.23,0.17,0.26,0.076,0.26];
initial_distribution_y4=[0.11,0.015,0.23,0.33,0.32];
initial_distribution_y5=[0.25,0.049,0.17,0.23,0.3];
initial_distribution_y6=[0.23,0.18,0.22,0.19,0.17];
initial_distribution_y7=[0.52,0.14,0.17,0.093,0.078];
initial_distribution_y8=[0.09,0.32,0.36,0.19,0.04];
initial_distribution_y9=[0.24,0.26,0.27,0.057,0.18];
initial_distribution_y10=[0.2,0.29,0.2,0.0049,0.3];
transition_y1=[
0.15,0.15,0.17,0.43,0.09|
0.12,0.26,0.038,0.17,0.4|
0.019,0.26,0.17,0.25,0.31|
0.31,0.21,0.17,0.043,0.27|
0.11,0.15,0.11,0.59,0.045|
];
transition_y2=[
0.028,0.27,0.49,0.21,0.008|
0.11,0.36,0.23,0.1,0.21|
0.048,0.5,0.074,0.036,0.34|
0.27,0.21,0.039,0.21,0.27|
0.12,0.28,0.17,0.33,0.091|
];
transition_y3=[
0.039,0.2,0.17,0.42,0.17|
0.062,0.095,0.24,0.32,0.29|
0.07,0.22,0.31,0.063,0.34|
0.17,0.15,0.29,0.28,0.11|
0.25,0.1,0.28,0.05,0.32|
];
transition_y4=[
0.27,0.25,0.29,0.074,0.12|
0.2,0.13,0.26,0.11,0.29|
0.13,0.34,0.024,0.29,0.22|
0.096,0.32,0.063,0.22,0.3|
0.45,0.17,0.035,0.31,0.034|
];
transition_y5=[
0.11,0.22,0.067,0.44,0.17|
0.4,0.2,0.0098,0.22,0.17|
0.07,0.29,0.44,0.19,0.011|
0.075,0.25,0.12,0.19,0.37|
0.22,0.061,0.12,0.35,0.25|
];
transition_y6=[
0.16,0.35,0.085,0.26,0.15|
0.19,0.28,0.26,0.004,0.25|
0.094,0.35,0.11,0.15,0.3|
0.19,0.19,0.18,0.19,0.25|
0.24,0.16,0.21,0.23,0.16|
];
transition_y7=[
0.18,0.32,0.2,0.1,0.2|
0.024,0.4,0.37,0.04,0.16|
0.097,0.2,0.38,0.024,0.3|
0.27,0.21,0.11,0.39,0.027|
0.26,0.065,0.19,0.14,0.34|
];
transition_y8=[
0.27,0.073,0.14,0.27,0.25|
0.061,0.26,0.25,0.24,0.19|
0.2,0.17,0.086,0.26,0.28|
0.14,0.25,0.2,0.22,0.19|
0.2,0.22,0.32,0.087,0.17|
];
transition_y9=[
0.026,0.69,0.18,0.065,0.035|
0.23,0.14,0.068,0.31,0.26|
0.31,0.024,0.49,0.027,0.15|
0.2,0.26,0.21,0.071,0.26|
0.19,0.03,0.28,0.3,0.2|
];
transition_y10=[
0.038,0.098,0.32,0.28,0.27|
0.057,0.41,0.068,0.16,0.3|
0.18,0.38,0.0082,0.32,0.11|
0.043,0.46,0.13,0.25,0.11|
0.13,0.028,0.21,0.21,0.41|
];
